InboundTrucks  = 30;
OutboundTrucks = 30;
InboundDoors   = 4;
OutboundDoors  = 4;
ReleaseTime    = [17,72,108,102,97,8,32,15,63,97,57,60,83,48,100,26,12,62,3,114,106,49,55,77,97,98,0,89,57,34];
UnloadTime     = [8,13,17,20,35,24,14,5,32,35,28,34,5,26,31,27,9,24,13,31,9,17,15,6,28,11,30,7,32,14];
LoadTime       = [5,16,6,20,18,14,8,24,17,15,10,17,6,22,19,11,8,12,13,20,6,20,20,10,14,17,14,23,13,9];
TransferTime   = [| 3,0,0,6,0,0,1,0,0,6,0,0,3,0,0,4,7,0,2,0,0,3,0,9,6,0,0,5,0,0 | 0,0,0,0,0,7,0,6,0,0,2,0,0,4,9,0,3,0,0,2,0,6,0,0,0,2,0,0,1,0 | 0,0,0,0,0,1,5,0,0,0,0,4,0,0,0,11,0,5,0,0,3,12,0,0,0,0,2,6,0,3 | 5,0,0,1,0,0,1,0,0,5,0,0,1,0,0,0,0,0,3,0,0,0,10,0,2,0,0,4,0,5 | 8,1,0,0,0,5,0,3,11,0,4,0,0,1,0,0,6,0,0,0,0,0,3,0,0,2,0,0,1,0 | 0,0,0,0,0,2,0,9,4,0,10,3,0,0,3,0,0,1,0,0,0,4,0,0,0,0,6,0,0,0 | 0,0,0,5,0,0,3,0,7,5,5,0,0,0,0,0,0,0,2,0,0,4,0,0,0,0,0,0,0,0 | 0,6,0,0,2,7,0,0,10,0,0,0,0,6,0,7,3,0,0,0,0,0,0,0,0,6,0,6,0,0 | 0,0,0,0,0,0,8,5,5,0,0,2,0,0,3,0,0,6,0,0,0,0,0,0,0,0,4,0,0,3 | 2,0,0,0,0,0,2,0,10,4,7,0,2,4,0,2,12,0,5,0,0,1,0,0,1,0,0,2,0,0 | 0,4,0,5,0,0,0,1,0,0,0,0,4,1,10,7,4,0,0,1,0,0,5,0,0,1,0,0,3,0 | 11,0,0,0,0,3,0,0,0,0,0,6,0,0,1,0,0,6,0,0,0,0,0,0,0,0,0,0,0,1 | 0,0,0,3,0,0,6,0,0,0,0,0,0,0,0,3,0,0,0,5,6,0,0,0,5,4,5,2,4,0 | 9,0,10,0,5,0,0,6,0,0,0,0,0,4,0,0,0,0,0,0,5,0,4,11,0,6,0,0,5,0 | 0,0,3,8,0,1,0,0,6,0,10,1,0,0,0,0,0,5,0,0,3,9,0,4,0,0,1,0,0,2 | 1,0,11,3,0,0,5,0,11,3,0,0,1,0,0,0,0,0,3,0,0,6,12,0,5,0,0,0,10,0 | 0,6,6,0,6,0,0,0,11,11,4,0,11,0,0,0,1,5,0,0,0,0,5,0,0,6,0,10,2,0 | 0,0,4,0,0,3,0,0,0,0,0,0,0,0,2,0,6,1,0,0,0,10,0,3,0,0,4,0,0,0 | 3,8,0,6,0,0,1,0,0,0,6,7,3,0,7,3,0,0,3,4,0,2,0,10,0,0,0,1,0,0 | 0,5,0,0,6,0,0,3,0,0,0,9,0,1,0,0,3,0,0,0,0,0,4,0,0,5,0,0,2,0 | 0,0,6,0,0,6,0,0,2,8,11,1,0,0,3,0,0,0,0,0,6,0,0,2,0,0,6,0,0,6 | 5,0,0,5,0,0,0,0,0,3,0,0,0,0,0,4,0,0,0,0,0,3,0,12,3,0,7,6,0,0 | 0,0,0,0,2,0,0,4,0,0,1,0,0,4,4,0,2,0,0,3,0,0,0,9,0,2,0,0,0,0 | 0,0,4,0,0,0,0,0,3,0,7,3,0,0,0,0,0,0,0,0,6,0,0,5,0,0,5,0,0,0 | 4,0,0,0,0,0,4,0,0,0,0,0,0,0,0,1,0,0,4,7,0,0,0,0,0,0,10,0,7,6 | 0,3,0,0,0,4,0,4,0,0,3,0,9,5,0,0,1,0,0,6,0,10,3,0,12,5,0,0,0,0 | 0,6,0,0,0,1,0,0,1,0,0,0,0,0,1,0,8,3,0,0,0,0,0,3,0,5,0,0,0,1 | 6,0,0,0,0,0,1,0,0,5,0,0,0,0,0,6,0,0,1,0,0,1,0,0,3,0,0,6,0,10 | 0,0,9,0,0,0,0,1,0,0,0,0,0,2,0,0,4,0,0,6,0,0,2,0,0,5,0,4,2,0 | 0,0,3,0,0,3,11,0,6,0,0,6,0,0,5,0,0,0,0,4,2,0,5,5,0,0,0,12,0,2 |];
